ID_groupA
44624
44624
26475
29823
44624
44624
44624
44624
44624
44624
44624
44624
44624
44624
26475
26475
29823
15423
44624
44624
44624
26475
26475
44624
26475
27190
44624
27190
29823
15423
44624
44624
44624
27190
26475
44624
27190
27190
26475
27190
15423
44624
44624
26475
27190
26475
44624
26475
27190
26475
15423
29823
15423
29823
29823
29823
29823
29823
29823
29823
15423
15423
44624
15423
15423
15423
15423
15423
15423
44624
44624
44624
44624
44624
44624
44624
15423
44624
15423
44624
44624
15423
15423
15423
44624
44624
44624
44624
44624
44624
26475
44624
29823
29823
15423
44624
44624
29823
44624
44624
44624
44624
29823
15423
29823
